(set-logic QF_S)
(declare-fun var_0xINPUT_50352 () String)
(assert (and (= (len var_0xINPUT_50352) 0) (= (len var_0xINPUT_50352) 0) (not (= var_0xINPUT_50352 "Example:")) (not (= var_0xINPUT_50352 "4PH2ujcENG"))))
(check-sat var_0xINPUT_50352)